data/CVRPLIB/Vrp-Set-XML100/instances/XML100_2112_21.vrp
NAME : XML100_2112_21
COMMENT : Generated by Queiroga, Sadykov, Uchoa, and Vidal (2021)
TYPE : CVRP
DIMENSION : 101
EDGE_WEIGHT_TYPE : EUC_2D
CAPACITY : 5
NODE_COORD_SECTION
1    500  500 
2    164  969 
3    378  776 
4    635  990 
5    52   177 
6    503  276 
7    737  359 
8    731  745 
9    893  859 
10   123  852 
11   295  518 
12   25   550 
13   573  515 
14   747  440 
15   786  994 
16   423  877 
17   177  177 
18   523  632 
19   455  756 
20   820  346 
21   783  533 
22   696  243 
23   754  102 
24   943  210 
25   946  543 
26   511  871 
27   918  982 
28   998  993 
29   36   204 
30   326  784 
31   170  581 
32   761  427 
33   17   140 
34   812  902 
35   751  682 
36   143  678 
37   259  531 
38   651  761 
39   79   880 
40   37   446 
41   496  774 
42   423  146 
43   979  237 
44   30   36  
45   204  681 
46   501  653 
47   883  360 
48   443  283 
49   8    203 
50   259  564 
51   157  971 
52   752  22  
53   612  940 
54   265  753 
55   416  927 
56   399  617 
57   86   894 
58   57   42  
59   132  81  
60   578  116 
61   733  719 
62   374  992 
63   666  402 
64   155  375 
65   587  546 
66   780  966 
67   654  475 
68   658  29  
69   871  453 
70   961  668 
71   994  600 
72   858  12  
73   831  598 
74   418  449 
75   469  146 
76   240  786 
77   455  340 
78   193  376 
79   293  869 
80   146  729 
81   740  840 
82   873  68  
83   15   229 
84   282  396 
85   634  89  
86   744  685 
87   874  305 
88   442  214 
89   104  425 
90   431  11  
91   282  369 
92   767  217 
93   58   944 
94   851  168 
95   416  793 
96   155  524 
97   744  189 
98   11   622 
99   43   917 
100  145  78  
101  232  986 
DEMAND_SECTION
1    0   
2    1   
3    1   
4    1   
5    1   
6    1   
7    1   
8    1   
9    1   
10   1   
11   1   
12   1   
13   1   
14   1   
15   1   
16   1   
17   1   
18   1   
19   1   
20   1   
21   1   
22   1   
23   1   
24   1   
25   1   
26   1   
27   1   
28   1   
29   1   
30   1   
31   1   
32   1   
33   1   
34   1   
35   1   
36   1   
37   1   
38   1   
39   1   
40   1   
41   1   
42   1   
43   1   
44   1   
45   1   
46   1   
47   1   
48   1   
49   1   
50   1   
51   1   
52   1   
53   1   
54   1   
55   1   
56   1   
57   1   
58   1   
59   1   
60   1   
61   1   
62   1   
63   1   
64   1   
65   1   
66   1   
67   1   
68   1   
69   1   
70   1   
71   1   
72   1   
73   1   
74   1   
75   1   
76   1   
77   1   
78   1   
79   1   
80   1   
81   1   
82   1   
83   1   
84   1   
85   1   
86   1   
87   1   
88   1   
89   1   
90   1   
91   1   
92   1   
93   1   
94   1   
95   1   
96   1   
97   1   
98   1   
99   1   
100  1   
101  1   
DEPOT_SECTION
1
-1
EOF
