data/CVRPLIB/Vrp-Set-XML100/solutions/XML100_2112_21.sol
Route #1: 12 66 13 31 62
Route #2: 99 58 57 43 32
Route #3: 68 46 86 19 6
Route #4: 80 33 26 27 8
Route #5: 20 24 70 69 72
Route #6: 59 84 67 89 41
Route #7: 82 48 28 4 16
Route #8: 83 90 77 63 88
Route #9: 96 81 71 51 22
Route #10: 76 47 87 74 5
Route #11: 15 54 61 25 40
Route #12: 53 75 79 35 44
Route #13: 29 78 100 1 50
Route #14: 7 60 85 34 64
Route #15: 55 49 36 10 73
Route #16: 2 94 18 45 17
Route #17: 52 3 14 65 37
Route #18: 95 39 11 97 30
Route #19: 42 23 93 91 21
Route #20: 9 56 92 98 38
Cost 20893
